60
1 0 5
2 0 7
2 1 2
3 0 10
3 1 4
3 2 2
4 0 3
4 1 2
4 2 10
4 3 4
5 0 8
5 1 9
5 2 5
5 3 7
5 4 9
6 0 6
6 1 8
6 2 8
6 3 6
6 4 1
6 5 10
7 0 1
7 1 9
7 2 10
7 3 6
7 4 7
7 5 9
7 6 3
8 0 10
8 1 1
8 2 6
8 3 8
8 4 1
8 5 5
8 6 9
8 7 5
9 0 10
9 1 1
9 2 8
9 3 7
9 4 5
9 5 8
9 6 7
9 7 2
9 8 2
10 0 6
10 1 5
10 2 3
10 3 1
10 4 9
10 5 10
10 6 7
10 7 10
10 8 7
10 9 4
11 0 7
11 1 3
11 2 2
11 3 5
11 4 7
11 5 7
11 6 10
11 7 6
11 8 4
11 9 3
11 10 5
12 0 4
12 1 10
12 2 2
12 3 4
12 4 9
12 5 7
12 6 7
12 7 6
12 8 3
12 9 7
12 10 5
12 11 6
13 0 6
13 1 7
13 2 6
13 3 3
13 4 3
13 5 7
13 6 6
13 7 5
13 8 4
13 9 9
13 10 9
13 11 10
13 12 3
14 0 1
14 1 6
14 2 1
14 3 4
14 4 10
14 5 4
14 6 1
14 7 8
14 8 4
14 9 6
14 10 8
14 11 7
14 12 8
14 13 5
15 0 9
15 1 10
15 2 5
15 3 5
15 4 3
15 5 7
15 6 6
15 7 10
15 8 8
15 9 8
15 10 10
15 11 4
15 12 8
15 13 8
15 14 6
16 0 3
16 1 6
16 2 8
16 3 4
16 4 9
16 5 3
16 6 8
16 7 3
16 8 2
16 9 3
16 10 9
16 11 9
16 12 2
16 13 7
16 14 3
16 15 5
17 0 7
17 1 9
17 2 2
17 3 10
17 4 6
17 5 2
17 6 9
17 7 3
17 8 1
17 9 9
17 10 1
17 11 4
17 12 8
17 13 8
17 14 1
17 15 8
17 16 8
18 0 1
18 1 5
18 2 6
18 3 9
18 4 6
18 5 7
18 6 1
18 7 10
18 8 5
18 9 1
18 10 3
18 11 6
18 12 3
18 13 9
18 14 2
18 15 4
18 16 10
18 17 3
19 0 3
19 1 10
19 2 9
19 3 6
19 4 3
19 5 1
19 6 10
19 7 8
19 8 3
19 9 7
19 10 3
19 11 9
19 12 1
19 13 9
19 14 5
19 15 1
19 16 3
19 17 2
19 18 7
20 0 2
20 1 4
20 2 6
20 3 5
20 4 1
20 5 4
20 6 3
20 7 2
20 8 6
20 9 8
20 10 4
20 11 8
20 12 3
20 13 10
20 14 9
20 15 5
20 16 8
20 17 1
20 18 8
20 19 4
21 0 7
21 1 2
21 2 3
21 3 6
21 4 9
21 5 7
21 6 1
21 7 10
21 8 1
21 9 9
21 10 3
21 11 3
21 12 4
21 13 3
21 14 6
21 15 2
21 16 7
21 17 7
21 18 3
21 19 5
21 20 5
22 0 8
22 1 5
22 2 5
22 3 8
22 4 8
22 5 3
22 6 1
22 7 1
22 8 3
22 9 6
22 10 10
22 11 6
22 12 10
22 13 6
22 14 2
22 15 9
22 16 3
22 17 4
22 18 3
22 19 8
22 20 5
22 21 8
23 0 1
23 1 2
23 2 9
23 3 1
23 4 7
23 5 4
23 6 9
23 7 5
23 8 8
23 9 2
23 10 10
23 11 1
23 12 5
23 13 10
23 14 7
23 15 5
23 16 2
23 17 9
23 18 4
23 19 10
23 20 3
23 21 3
23 22 1
24 0 2
24 1 4
24 2 7
24 3 1
24 4 1
24 5 5
24 6 3
24 7 7
24 8 1
24 9 2
24 10 5
24 11 2
24 12 2
24 13 2
24 14 2
24 15 8
24 16 8
24 17 8
24 18 1
24 19 9
24 20 4
24 21 8
24 22 6
24 23 3
25 0 9
25 1 8
25 2 1
25 3 10
25 4 8
25 5 3
25 6 1
25 7 6
25 8 7
25 9 3
25 10 7
25 11 5
25 12 8
25 13 8
25 14 6
25 15 5
25 16 6
25 17 5
25 18 6
25 19 10
25 20 9
25 21 7
25 22 6
25 23 1
25 24 9
26 0 5
26 1 2
26 2 10
26 3 10
26 4 1
26 5 7
26 6 4
26 7 10
26 8 4
26 9 8
26 10 10
26 11 1
26 12 3
26 13 4
26 14 8
26 15 10
26 16 4
26 17 7
26 18 2
26 19 8
26 20 6
26 21 9
26 22 2
26 23 9
26 24 7
26 25 8
27 0 7
27 1 10
27 2 1
27 3 8
27 4 2
27 5 5
27 6 9
27 7 9
27 8 10
27 9 2
27 10 7
27 11 5
27 12 4
27 13 9
27 14 8
27 15 7
27 16 2
27 17 9
27 18 1
27 19 9
27 20 3
27 21 5
27 22 10
27 23 3
27 24 10
27 25 10
27 26 4
28 0 2
28 1 4
28 2 7
28 3 4
28 4 5
28 5 4
28 6 3
28 7 2
28 8 9
28 9 4
28 10 7
28 11 1
28 12 8
28 13 8
28 14 3
28 15 4
28 16 5
28 17 6
28 18 8
28 19 10
28 20 5
28 21 1
28 22 5
28 23 6
28 24 2
28 25 8
28 26 4
28 27 7
29 0 5
29 1 8
29 2 8
29 3 5
29 4 5
29 5 9
29 6 9
29 7 8
29 8 1
29 9 7
29 10 9
29 11 3
29 12 5
29 13 3
29 14 6
29 15 10
29 16 3
29 17 2
29 18 4
29 19 3
29 20 3
29 21 5
29 22 4
29 23 1
29 24 2
29 25 5
29 26 5
29 27 8
29 28 8
30 0 3
30 1 5
30 2 5
30 3 1
30 4 3
30 5 4
30 6 1
30 7 6
30 8 4
30 9 1
30 10 6
30 11 6
30 12 6
30 13 9
30 14 3
30 15 3
30 16 6
30 17 4
30 18 5
30 19 5
30 20 10
30 21 3
30 22 9
30 23 6
30 24 8
30 25 2
30 26 4
30 27 7
30 28 4
30 29 9
31 0 8
31 1 2
31 2 5
31 3 6
31 4 7
31 5 9
31 6 3
31 7 8
31 8 1
31 9 10
31 10 7
31 11 7
31 12 1
31 13 10
31 14 5
31 15 6
31 16 7
31 17 1
31 18 8
31 19 10
31 20 10
31 21 8
31 22 6
31 23 1
31 24 9
31 25 6
31 26 8
31 27 9
31 28 9
31 29 10
31 30 5
32 0 9
32 1 6
32 2 5
32 3 2
32 4 9
32 5 6
32 6 5
32 7 10
32 8 10
32 9 2
32 10 6
32 11 5
32 12 9
32 13 1
32 14 9
32 15 9
32 16 9
32 17 2
32 18 5
32 19 3
32 20 5
32 21 6
32 22 4
32 23 4
32 24 8
32 25 10
32 26 8
32 27 9
32 28 9
32 29 5
32 30 8
32 31 3
33 0 7
33 1 9
33 2 5
33 3 10
33 4 2
33 5 9
33 6 1
33 7 7
33 8 6
33 9 6
33 10 2
33 11 1
33 12 6
33 13 4
33 14 2
33 15 6
33 16 7
33 17 9
33 18 10
33 19 2
33 20 2
33 21 9
33 22 9
33 23 2
33 24 6
33 25 1
33 26 9
33 27 1
33 28 10
33 29 1
33 30 6
33 31 7
33 32 6
34 0 4
34 1 6
34 2 10
34 3 8
34 4 10
34 5 7
34 6 8
34 7 7
34 8 8
34 9 5
34 10 6
34 11 10
34 12 4
34 13 6
34 14 3
34 15 5
34 16 1
34 17 9
34 18 4
34 19 6
34 20 10
34 21 1
34 22 4
34 23 1
34 24 8
34 25 8
34 26 9
34 27 9
34 28 9
34 29 7
34 30 3
34 31 8
34 32 2
34 33 5
35 0 1
35 1 2
35 2 2
35 3 6
35 4 6
35 5 2
35 6 9
35 7 1
35 8 7
35 9 10
35 10 2
35 11 1
35 12 7
35 13 5
35 14 2
35 15 3
35 16 2
35 17 2
35 18 4
35 19 10
35 20 8
35 21 9
35 22 7
35 23 4
35 24 7
35 25 7
35 26 10
35 27 9
35 28 8
35 29 3
35 30 2
35 31 7
35 32 8
35 33 3
35 34 7
36 0 6
36 1 5
36 2 10
36 3 2
36 4 2
36 5 7
36 6 6
36 7 3
36 8 8
36 9 5
36 10 3
36 11 6
36 12 6
36 13 4
36 14 4
36 15 6
36 16 9
36 17 6
36 18 10
36 19 1
36 20 3
36 21 10
36 22 5
36 23 8
36 24 4
36 25 8
36 26 8
36 27 5
36 28 4
36 29 7
36 30 9
36 31 5
36 32 9
36 33 3
36 34 8
36 35 2
37 0 7
37 1 10
37 2 4
37 3 8
37 4 1
37 5 9
37 6 2
37 7 5
37 8 10
37 9 4
37 10 7
37 11 6
37 12 8
37 13 1
37 14 3
37 15 10
37 16 3
37 17 9
37 18 2
37 19 10
37 20 8
37 21 3
37 22 6
37 23 8
37 24 4
37 25 1
37 26 2
37 27 10
37 28 9
37 29 9
37 30 1
37 31 4
37 32 2
37 33 6
37 34 6
37 35 8
37 36 5
38 0 10
38 1 3
38 2 1
38 3 7
38 4 6
38 5 10
38 6 1
38 7 2
38 8 9
38 9 5
38 10 7
38 11 7
38 12 5
38 13 9
38 14 8
38 15 10
38 16 2
38 17 6
38 18 10
38 19 5
38 20 3
38 21 10
38 22 1
38 23 1
38 24 6
38 25 9
38 26 6
38 27 4
38 28 6
38 29 1
38 30 2
38 31 5
38 32 3
38 33 7
38 34 2
38 35 6
38 36 7
38 37 1
39 0 10
39 1 8
39 2 6
39 3 4
39 4 2
39 5 6
39 6 3
39 7 10
39 8 4
39 9 2
39 10 8
39 11 3
39 12 1
39 13 4
39 14 7
39 15 4
39 16 3
39 17 2
39 18 2
39 19 10
39 20 1
39 21 7
39 22 1
39 23 3
39 24 5
39 25 5
39 26 9
39 27 9
39 28 4
39 29 5
39 30 6
39 31 3
39 32 10
39 33 6
39 34 7
39 35 4
39 36 9
39 37 3
39 38 9
40 0 1
40 1 3
40 2 6
40 3 10
40 4 10
40 5 2
40 6 8
40 7 1
40 8 7
40 9 4
40 10 5
40 11 10
40 12 2
40 13 3
40 14 3
40 15 4
40 16 8
40 17 6
40 18 6
40 19 4
40 20 9
40 21 7
40 22 6
40 23 9
40 24 4
40 25 6
40 26 8
40 27 6
40 28 5
40 29 2
40 30 1
40 31 6
40 32 8
40 33 8
40 34 5
40 35 8
40 36 10
40 37 5
40 38 2
40 39 8
41 0 4
41 1 2
41 2 6
41 3 5
41 4 1
41 5 1
41 6 2
41 7 8
41 8 5
41 9 1
41 10 8
41 11 4
41 12 4
41 13 5
41 14 7
41 15 5
41 16 5
41 17 9
41 18 5
41 19 7
41 20 5
41 21 9
41 22 3
41 23 9
41 24 8
41 25 2
41 26 10
41 27 6
41 28 1
41 29 10
41 30 6
41 31 3
41 32 4
41 33 9
41 34 6
41 35 5
41 36 3
41 37 3
41 38 9
41 39 2
41 40 7
42 0 8
42 1 5
42 2 9
42 3 4
42 4 6
42 5 9
42 6 8
42 7 1
42 8 8
42 9 1
42 10 6
42 11 3
42 12 8
42 13 5
42 14 9
42 15 6
42 16 6
42 17 10
42 18 10
42 19 7
42 20 6
42 21 2
42 22 7
42 23 10
42 24 7
42 25 4
42 26 1
42 27 8
42 28 1
42 29 2
42 30 4
42 31 5
42 32 7
42 33 9
42 34 10
42 35 10
42 36 3
42 37 9
42 38 1
42 39 9
42 40 5
42 41 5
43 0 9
43 1 5
43 2 7
43 3 5
43 4 4
43 5 5
43 6 8
43 7 4
43 8 5
43 9 7
43 10 9
43 11 10
43 12 9
43 13 9
43 14 6
43 15 3
43 16 9
43 17 4
43 18 10
43 19 7
43 20 8
43 21 3
43 22 2
43 23 3
43 24 8
43 25 6
43 26 6
43 27 3
43 28 3
43 29 6
43 30 7
43 31 8
43 32 6
43 33 8
43 34 2
43 35 4
43 36 10
43 37 6
43 38 4
43 39 4
43 40 6
43 41 3
43 42 9
44 0 10
44 1 2
44 2 4
44 3 7
44 4 3
44 5 3
44 6 1
44 7 1
44 8 6
44 9 4
44 10 2
44 11 8
44 12 6
44 13 2
44 14 7
44 15 10
44 16 2
44 17 8
44 18 9
44 19 3
44 20 3
44 21 9
44 22 2
44 23 10
44 24 10
44 25 5
44 26 5
44 27 4
44 28 8
44 29 9
44 30 1
44 31 5
44 32 2
44 33 6
44 34 6
44 35 5
44 36 6
44 37 6
44 38 6
44 39 5
44 40 1
44 41 6
44 42 1
44 43 6
45 0 8
45 1 2
45 2 8
45 3 7
45 4 4
45 5 5
45 6 6
45 7 5
45 8 3
45 9 5
45 10 5
45 11 1
45 12 1
45 13 4
45 14 3
45 15 1
45 16 2
45 17 6
45 18 8
45 19 7
45 20 1
45 21 3
45 22 10
45 23 6
45 24 10
45 25 6
45 26 5
45 27 7
45 28 9
45 29 2
45 30 8
45 31 10
45 32 2
45 33 2
45 34 2
45 35 9
45 36 9
45 37 5
45 38 10
45 39 7
45 40 4
45 41 4
45 42 10
45 43 3
45 44 2
46 0 3
46 1 6
46 2 5
46 3 1
46 4 4
46 5 3
46 6 10
46 7 1
46 8 9
46 9 10
46 10 8
46 11 1
46 12 3
46 13 2
46 14 1
46 15 9
46 16 4
46 17 5
46 18 1
46 19 10
46 20 5
46 21 1
46 22 6
46 23 3
46 24 3
46 25 6
46 26 1
46 27 7
46 28 4
46 29 5
46 30 10
46 31 9
46 32 3
46 33 4
46 34 5
46 35 5
46 36 10
46 37 3
46 38 1
46 39 8
46 40 3
46 41 10
46 42 7
46 43 9
46 44 7
46 45 6
47 0 10
47 1 1
47 2 3
47 3 2
47 4 6
47 5 5
47 6 9
47 7 3
47 8 5
47 9 4
47 10 5
47 11 1
47 12 2
47 13 5
47 14 5
47 15 7
47 16 9
47 17 9
47 18 3
47 19 7
47 20 3
47 21 4
47 22 3
47 23 6
47 24 9
47 25 9
47 26 2
47 27 1
47 28 1
47 29 4
47 30 7
47 31 10
47 32 9
47 33 10
47 34 4
47 35 10
47 36 9
47 37 6
47 38 4
47 39 3
47 40 9
47 41 1
47 42 8
47 43 9
47 44 9
47 45 5
47 46 8
48 0 10
48 1 1
48 2 8
48 3 6
48 4 9
48 5 3
48 6 1
48 7 7
48 8 8
48 9 3
48 10 7
48 11 7
48 12 4
48 13 10
48 14 4
48 15 2
48 16 3
48 17 7
48 18 9
48 19 10
48 20 7
48 21 10
48 22 5
48 23 8
48 24 1
48 25 5
48 26 4
48 27 8
48 28 8
48 29 1
48 30 3
48 31 9
48 32 6
48 33 8
48 34 4
48 35 1
48 36 3
48 37 7
48 38 8
48 39 9
48 40 2
48 41 2
48 42 5
48 43 6
48 44 4
48 45 8
48 46 5
48 47 9
49 0 5
49 1 2
49 2 10
49 3 3
49 4 1
49 5 1
49 6 4
49 7 9
49 8 2
49 9 5
49 10 4
49 11 1
49 12 1
49 13 4
49 14 7
49 15 4
49 16 10
49 17 6
49 18 9
49 19 8
49 20 1
49 21 6
49 22 4
49 23 9
49 24 6
49 25 3
49 26 1
49 27 6
49 28 2
49 29 10
49 30 3
49 31 10
49 32 3
49 33 9
49 34 8
49 35 4
49 36 3
49 37 9
49 38 7
49 39 5
49 40 3
49 41 5
49 42 9
49 43 9
49 44 1
49 45 9
49 46 5
49 47 4
49 48 4
50 0 9
50 1 8
50 2 3
50 3 5
50 4 10
50 5 9
50 6 6
50 7 6
50 8 1
50 9 1
50 10 1
50 11 5
50 12 10
50 13 7
50 14 6
50 15 9
50 16 4
50 17 2
50 18 2
50 19 2
50 20 3
50 21 9
50 22 9
50 23 3
50 24 1
50 25 7
50 26 4
50 27 6
50 28 10
50 29 2
50 30 6
50 31 8
50 32 2
50 33 8
50 34 1
50 35 5
50 36 4
50 37 7
50 38 3
50 39 9
50 40 9
50 41 4
50 42 1
50 43 2
50 44 2
50 45 4
50 46 1
50 47 2
50 48 2
50 49 5
51 0 9
51 1 1
51 2 4
51 3 1
51 4 1
51 5 5
51 6 4
51 7 10
51 8 10
51 9 1
51 10 8
51 11 9
51 12 3
51 13 2
51 14 7
51 15 4
51 16 10
51 17 5
51 18 2
51 19 10
51 20 8
51 21 10
51 22 5
51 23 4
51 24 3
51 25 6
51 26 7
51 27 5
51 28 3
51 29 3
51 30 8
51 31 4
51 32 5
51 33 8
51 34 3
51 35 7
51 36 9
51 37 9
51 38 2
51 39 9
51 40 9
51 41 5
51 42 3
51 43 9
51 44 8
51 45 1
51 46 6
51 47 3
51 48 5
51 49 8
51 50 9
52 0 5
52 1 1
52 2 2
52 3 10
52 4 9
52 5 8
52 6 1
52 7 5
52 8 5
52 9 5
52 10 9
52 11 9
52 12 5
52 13 4
52 14 1
52 15 10
52 16 1
52 17 3
52 18 9
52 19 4
52 20 10
52 21 7
52 22 10
52 23 10
52 24 4
52 25 2
52 26 5
52 27 6
52 28 9
52 29 3
52 30 9
52 31 8
52 32 2
52 33 8
52 34 2
52 35 3
52 36 7
52 37 9
52 38 2
52 39 2
52 40 9
52 41 10
52 42 10
52 43 6
52 44 9
52 45 3
52 46 4
52 47 5
52 48 1
52 49 6
52 50 2
52 51 7
53 0 1
53 1 10
53 2 3
53 3 4
53 4 6
53 5 2
53 6 1
53 7 10
53 8 7
53 9 5
53 10 10
53 11 3
53 12 5
53 13 1
53 14 7
53 15 3
53 16 9
53 17 5
53 18 5
53 19 8
53 20 7
53 21 4
53 22 5
53 23 7
53 24 1
53 25 1
53 26 7
53 27 5
53 28 4
53 29 9
53 30 9
53 31 6
53 32 5
53 33 10
53 34 2
53 35 10
53 36 7
53 37 10
53 38 6
53 39 7
53 40 3
53 41 4
53 42 3
53 43 10
53 44 10
53 45 9
53 46 4
53 47 1
53 48 6
53 49 3
53 50 3
53 51 10
53 52 9
54 0 3
54 1 5
54 2 2
54 3 9
54 4 9
54 5 4
54 6 3
54 7 5
54 8 7
54 9 2
54 10 2
54 11 8
54 12 9
54 13 4
54 14 10
54 15 5
54 16 7
54 17 3
54 18 8
54 19 5
54 20 4
54 21 4
54 22 9
54 23 5
54 24 4
54 25 9
54 26 2
54 27 7
54 28 3
54 29 8
54 30 5
54 31 3
54 32 1
54 33 2
54 34 8
54 35 8
54 36 8
54 37 6
54 38 9
54 39 1
54 40 2
54 41 4
54 42 3
54 43 4
54 44 8
54 45 10
54 46 7
54 47 8
54 48 2
54 49 6
54 50 9
54 51 1
54 52 9
54 53 9
55 0 6
55 1 8
55 2 4
55 3 5
55 4 9
55 5 2
55 6 4
55 7 10
55 8 7
55 9 9
55 10 3
55 11 7
55 12 10
55 13 9
55 14 10
55 15 4
55 16 8
55 17 2
55 18 4
55 19 7
55 20 10
55 21 2
55 22 10
55 23 7
55 24 10
55 25 5
55 26 3
55 27 9
55 28 6
55 29 7
55 30 1
55 31 6
55 32 10
55 33 6
55 34 7
55 35 4
55 36 4
55 37 6
55 38 6
55 39 5
55 40 9
55 41 3
55 42 10
55 43 5
55 44 9
55 45 10
55 46 5
55 47 4
55 48 8
55 49 9
55 50 2
55 51 3
55 52 10
55 53 6
55 54 4
56 0 1
56 1 4
56 2 5
56 3 5
56 4 7
56 5 8
56 6 8
56 7 2
56 8 8
56 9 8
56 10 5
56 11 6
56 12 1
56 13 9
56 14 2
56 15 4
56 16 1
56 17 4
56 18 7
56 19 10
56 20 3
56 21 4
56 22 3
56 23 9
56 24 9
56 25 10
56 26 3
56 27 10
56 28 3
56 29 1
56 30 4
56 31 8
56 32 6
56 33 9
56 34 8
56 35 8
56 36 4
56 37 3
56 38 5
56 39 2
56 40 2
56 41 2
56 42 9
56 43 3
56 44 7
56 45 2
56 46 8
56 47 1
56 48 6
56 49 8
56 50 2
56 51 6
56 52 1
56 53 4
56 54 5
56 55 9
57 0 7
57 1 8
57 2 6
57 3 8
57 4 2
57 5 4
57 6 5
57 7 6
57 8 3
57 9 1
57 10 8
57 11 9
57 12 1
57 13 10
57 14 7
57 15 4
57 16 8
57 17 4
57 18 7
57 19 9
57 20 10
57 21 8
57 22 7
57 23 9
57 24 6
57 25 2
57 26 3
57 27 7
57 28 6
57 29 7
57 30 6
57 31 3
57 32 3
57 33 6
57 34 9
57 35 1
57 36 4
57 37 10
57 38 1
57 39 7
57 40 5
57 41 8
57 42 2
57 43 8
57 44 7
57 45 2
57 46 6
57 47 9
57 48 4
57 49 10
57 50 7
57 51 7
57 52 6
57 53 8
57 54 6
57 55 10
57 56 4
58 0 7
58 1 8
58 2 6
58 3 7
58 4 1
58 5 9
58 6 7
58 7 1
58 8 10
58 9 8
58 10 5
58 11 6
58 12 2
58 13 5
58 14 7
58 15 3
58 16 10
58 17 8
58 18 9
58 19 7
58 20 5
58 21 10
58 22 3
58 23 3
58 24 10
58 25 8
58 26 5
58 27 8
58 28 7
58 29 2
58 30 5
58 31 9
58 32 3
58 33 9
58 34 7
58 35 8
58 36 5
58 37 6
58 38 1
58 39 1
58 40 4
58 41 9
58 42 4
58 43 2
58 44 10
58 45 8
58 46 3
58 47 9
58 48 10
58 49 2
58 50 8
58 51 2
58 52 8
58 53 9
58 54 3
58 55 4
58 56 10
58 57 6
59 0 10
59 1 7
59 2 5
59 3 10
59 4 5
59 5 7
59 6 1
59 7 1
59 8 7
59 9 5
59 10 2
59 11 2
59 12 7
59 13 4
59 14 10
59 15 2
59 16 7
59 17 7
59 18 4
59 19 3
59 20 7
59 21 1
59 22 10
59 23 4
59 24 3
59 25 6
59 26 5
59 27 7
59 28 1
59 29 7
59 30 7
59 31 6
59 32 6
59 33 7
59 34 2
59 35 8
59 36 6
59 37 9
59 38 3
59 39 1
59 40 4
59 41 5
59 42 2
59 43 10
59 44 10
59 45 10
59 46 8
59 47 3
59 48 10
59 49 9
59 50 9
59 51 7
59 52 2
59 53 5
59 54 3
59 55 7
59 56 2
59 57 7
59 58 6
